(declare-fun alpha1_ack!1284 () (_ BitVec 64))
(declare-fun beta_ack!1285 () (_ BitVec 64))
(declare-fun mu_ack!1286 () (_ BitVec 32))
(declare-fun nu_ack!1287 () (_ BitVec 32))
(assert (not (fp.lt ((_ to_fp 11 53) alpha1_ack!1284)
            ((_ to_fp 11 53) #xbff0000000000000))))
(assert (not (fp.lt ((_ to_fp 11 53) beta_ack!1285)
            ((_ to_fp 11 53) #xbff0000000000000))))
(assert (= #x00000000 mu_ack!1286))
(assert (= #x00000000 nu_ack!1287))

(check-sat)
(exit)
